c CNF file corresponding to a (partial) station packing problem.
p cnf 7112 171
1 2 3 4 5 6 7 8 9 10 11 12 13 14 0
-1 -2 0
-1 -3 0
-1 -4 0
-1 -5 0
-1 -6 0
-1 -7 0
-1 -8 0
-1 -9 0
-1 -10 0
-1 -11 0
-1 -12 0
-1 -13 0
-1 -14 0
-2 -3 0
-2 -4 0
-2 -5 0
-2 -6 0
-2 -7 0
-2 -8 0
-2 -9 0
-2 -10 0
-2 -11 0
-2 -12 0
-2 -13 0
-2 -14 0
-3 -4 0
-3 -5 0
-3 -6 0
-3 -7 0
-3 -8 0
-3 -9 0
-3 -10 0
-3 -11 0
-3 -12 0
-3 -13 0
-3 -14 0
-4 -5 0
-4 -6 0
-4 -7 0
-4 -8 0
-4 -9 0
-4 -10 0
-4 -11 0
-4 -12 0
-4 -13 0
-4 -14 0
-5 -6 0
-5 -7 0
-5 -8 0
-5 -9 0
-5 -10 0
-5 -11 0
-5 -12 0
-5 -13 0
-5 -14 0
-6 -7 0
-6 -8 0
-6 -9 0
-6 -10 0
-6 -11 0
-6 -12 0
-6 -13 0
-6 -14 0
-7 -8 0
-7 -9 0
-7 -10 0
-7 -11 0
-7 -12 0
-7 -13 0
-7 -14 0
-8 -9 0
-8 -10 0
-8 -11 0
-8 -12 0
-8 -13 0
-8 -14 0
-9 -10 0
-9 -11 0
-9 -12 0
-9 -13 0
-9 -14 0
-10 -11 0
-10 -12 0
-10 -13 0
-10 -14 0
-11 -12 0
-11 -13 0
-11 -14 0
-12 -13 0
-12 -14 0
-13 -14 0
7100 7101 7102 7103 7104 7105 7106 7107 7108 7109 7110 7111 7112 0
-7100 -7101 0
-7100 -7102 0
-7100 -7103 0
-7100 -7104 0
-7100 -7105 0
-7100 -7106 0
-7100 -7107 0
-7100 -7108 0
-7100 -7109 0
-7100 -7110 0
-7100 -7111 0
-7100 -7112 0
-7101 -7102 0
-7101 -7103 0
-7101 -7104 0
-7101 -7105 0
-7101 -7106 0
-7101 -7107 0
-7101 -7108 0
-7101 -7109 0
-7101 -7110 0
-7101 -7111 0
-7101 -7112 0
-7102 -7103 0
-7102 -7104 0
-7102 -7105 0
-7102 -7106 0
-7102 -7107 0
-7102 -7108 0
-7102 -7109 0
-7102 -7110 0
-7102 -7111 0
-7102 -7112 0
-7103 -7104 0
-7103 -7105 0
-7103 -7106 0
-7103 -7107 0
-7103 -7108 0
-7103 -7109 0
-7103 -7110 0
-7103 -7111 0
-7103 -7112 0
-7104 -7105 0
-7104 -7106 0
-7104 -7107 0
-7104 -7108 0
-7104 -7109 0
-7104 -7110 0
-7104 -7111 0
-7104 -7112 0
-7105 -7106 0
-7105 -7107 0
-7105 -7108 0
-7105 -7109 0
-7105 -7110 0
-7105 -7111 0
-7105 -7112 0
-7106 -7107 0
-7106 -7108 0
-7106 -7109 0
-7106 -7110 0
-7106 -7111 0
-7106 -7112 0
-7107 -7108 0
-7107 -7109 0
-7107 -7110 0
-7107 -7111 0
-7107 -7112 0
-7108 -7109 0
-7108 -7110 0
-7108 -7111 0
-7108 -7112 0
-7109 -7110 0
-7109 -7111 0
-7109 -7112 0
-7110 -7111 0
-7110 -7112 0
-7111 -7112 0
